
 102   30
  10   10   10   10   10   10   10   10   10   10   10   10   10   10   10   10   10   10   10   10   10   10   10   10   10   10   10   10   10   10

   0   0   0   0   0   0   0   0   0   0   0   0   0   0   0   0   0   0   0   0   0   0   0   0   0   0   0   0   0   0   0  27 2 3 4 5 6 7 8 9 10 11 12 13 15 16 18 19 20 21 22 23 24 27 30 32 33 35 36 
   2   0   0   0   0   0   0   0   0   0   0   2   0   0   3   0   0   0   0   2   0   0   0   0   0   0   0   0   0   4   0  15 100 59 55 54 53 52 51 50 47 44 43 42 38 34 14 
   6   1   0   0   0   0   0   1   2   0   0   0   0   1   6   0   0   0   0   0   0   3   0   1   1   0   0   1   0   0   0  14 100 99 62 60 55 54 52 51 50 48 38 29 25 14 
   9   0   0   0   0   0   0   2   0   0   1   0   0   0   0   0   0   0   0   0   0   0   0   8   4   0   0   0   0   0   3  15 75 74 71 64 56 54 53 51 47 41 39 37 34 28 17 
   6   0   0   0   0   0   1   0   0   1   0   6   0   0   0   0   0   0   0   0   0   0   0   5   0   0   0   0   3   6   0  15 100 99 74 73 63 61 59 55 52 46 43 42 37 34 25 
   8   0   0   0   0   1   0   0   0   0   0   0   0   0   0   0   1   2   0   4   0   0   0   0   0   0   0   5   0   0   0  17 101 100 99 95 74 73 64 63 62 55 53 51 48 43 39 38 37 
   9   0   0   0   0   0   0   0   0   0   0   0   0   0   0   0   0   0   0   0   0   0   0   0   8   0   0   0   0   0   0  14 101 97 74 72 64 63 62 60 56 49 41 39 38 31 
   4   0   0   1   0   0   0   0   0   7   0   0   0   0   0   0   0   0   0   0   0   7   1   0   0   0   0   0   0   5   0  13 99 96 74 73 63 59 52 51 50 48 38 37 25 
   3   0   0   0   0   0   0   0   0   0   0   7   0   0   0   0   0   0   0   0   0   0   0   0   0   0   0   0   0   0   0  24 101 100 97 96 94 92 90 89 85 73 72 70 69 62 61 59 58 55 53 51 49 48 46 44 
   2   0   0   0   0   0   0   0   0   0   0   5   0   0   0   1   0   0   0   0   0   0   8   8  10   0   0   0   0   0   0  15 97 93 91 75 74 72 71 63 61 55 54 49 42 40 31 
   5   0   1   0   0   0   0   0   0   0   0   0   0   0   0   0   0   0   1   7   0   0   0   0   0   1   0   0   0   0   0  12 100 99 96 74 73 72 63 62 50 45 39 25 
   3   0   0   0   0   0   0   0   4   3   0   0   0   8   0   0   0   0   0   5   0   0   0   0   6   0   0   0   0   3   0  12 101 99 88 74 72 60 55 49 42 39 38 29 
   5   0   7   0   0   0   0   0   0   0   0   0   0   0   0   0   5   0   0   0   0   0   0   0   0   0   1   0   6   0   4  19 101 100 97 96 92 91 90 85 72 69 64 62 59 58 53 49 48 44 40 
   6   0   0   0   0   0   0   0   0   0   0   0   0   0   0   0   0   0   0   0   0   0   0   0   5   0   0   0   9   0   0  13 101 96 92 87 74 73 71 63 58 56 41 39 37 
   2   0   0   0   3   0   0   0   0   0   0   0   0   0  10   0   8   0   0   6   0   0   0   0   0   0   0   0   0   0   0  12 99 95 93 92 73 72 71 62 57 51 49 26 
   6   0   0   7   0   0   0   0   0   0   0   0   3  10   0   0   0   0   0   0   0   0   0   5   0   0   0   0   0   0   0  22 101 100 97 95 94 93 92 91 74 73 72 70 68 67 66 62 61 58 53 51 47 44 
  10   0   6   0   4   0   0   0   0   0   0   0   0   0   0   0   0   0   6   0   1   0   0   0   0   0   0   0   0   7   0  12 98 96 95 93 92 84 73 62 60 55 50 26 
   9   0   0   0   0   0   0   0   0   0   0   0   0   0   0   8   0   0   0   4   0   0   4   0   0   0   0   0   0   6   0  23 101 99 96 95 92 91 90 84 83 75 74 73 71 70 69 68 67 66 65 64 63 52 50 
   2   0   0   0   0   0   0   0   0   0   0   0   0   9   9   0   5   0   0   0   0   0   0   0   0   0   0   0   0   0   0  20 96 95 93 92 91 90 89 84 74 72 70 68 67 66 61 58 53 52 50 47 
   6   0   0   0   0   8   0   0   0   0   5   0   0   0   0   0   0   0   0   0   0   0   0   0   7   0   0   0   0   0   0  15 99 98 97 96 93 92 91 89 67 66 61 60 59 51 42 
   7   0   0   0   0   0   0   0   0   7   0   0   0   0   0   0   0   0   0   0   0   0   0   0   0   0   0   3   0   0   0  15 97 94 93 89 72 70 64 63 62 61 57 52 50 49 48 
  10   7   0   0   0   5   0   0  10   0   0   0   0   0   5   0   6   0   0   0   0   0   0   0   0   0   8   0   0   0   0  15 97 96 94 89 86 83 74 73 71 70 65 58 51 48 42 
   6   0   0   0   0   0   9   0   0   0   0   0   0   0   0   0   0   0   0   0   0   0   0   0   0   0   0   0   0   0   0  17 99 98 95 93 92 91 89 72 69 67 66 65 63 62 58 50 49 
   1   0   0   0   0   0   0   0   5   0   0   0   0   0   0   8   0   3   0   0  10   0   0   0   0   9   0   5   0   9   0  22 101 100 99 96 94 93 91 89 88 87 85 82 78 73 72 71 69 68 67 66 65 59 
   1   0   0  10   0   0   0   0   0   0   0   4   8   0   0   0   0   0   0   0   7   0   0   0   9   0   0   0   0   0   0  15 101 98 93 92 91 90 88 86 71 70 67 66 53 49 47 
   3   0   0   2   0   0   0   0   0   0   0   0   5   0   0   0   0   0   0   0   0   0   0   0   0   0   6   0  10   0   0  14 100 97 94 91 90 89 86 83 82 70 69 61 52 48 
   8   0   0   6   0   0   0   7   0   0   0   0   0   0   0   8   0   0   0   0   0   0   0   0   0   0   0   0   0   0   0  16 100 99 98 96 92 90 86 85 79 75 70 69 67 59 55 49 
   3   0   0   0   0   0   0   0   0   0   0   0   0   0   0   9   0   0   0   0   0   0   9   0   0   0   7   0   0   0   0  15 98 97 96 93 92 90 89 79 72 70 68 67 63 60 49 
   9   0   0   0   0   0   0   0   0   0   0   0   0   0   0   0   0   0   0   0   0   0   0   0   0   0   0   0   0   5   0  16 97 94 93 91 89 87 86 84 73 70 68 67 66 65 63 59 
   7   0   0   0   0   0   0   0   0   0   0   8   0   0   0   0   0   0   0   0   0   0   0   0   0   0   0   0   6   0   0  16 100 97 89 86 85 84 82 78 74 73 71 69 65 59 58 56 
   5   0   0   0   0   0   0   0   6   0   0   9   0   0   0   4   9   8   0   0   0   0   0   6   0   4   0   0   0   0   0  11 100 94 92 83 67 66 65 58 57 51 50 
   2   0   0   0   0   0   0   0   0   0   0   0   0   0   0   4   0   5   0   0   0   0   3   0   0   0   0   0   0   0   0  14 100 92 89 88 87 86 85 84 81 72 71 68 67 54 
   9   0   0   0   0   0   0   0   0   7   0   0   0   0   0   9   0   9   0   7   0   0   0   0   0   0   0   0   0   0   0  10 100 93 92 91 88 87 73 70 66 45 
   9   0   0   0   0   0   0   4   0   0   0   0   0   0   0   0   0   0   0   6   0   0   0   0   0   0   0   0   0   0   0  12 97 96 95 94 93 90 88 83 78 65 58 48 
   9   0   0   0   0   0   0   0   8   0   0   7   0   0   0   0   0   0   0   0   0   0   0   0   0   0   0   8   0   0   0  13 99 97 92 90 88 87 86 84 82 80 77 66 53 
   5   0   0  10   0   0   0   0   0   0   0   0   0   0   0   0   4   0   0   0   0   0   0   0   5   0   0   0   0   0   7  13 97 95 92 91 88 87 86 84 82 68 66 62 58 
   7   0   0   0   0   0   0   0   0   0   0   0   0   0   2   6   0   0   0   0   0   0   0   0   0   8   5   0   0   0   0  10 97 94 91 90 89 85 72 67 65 49 
   2   0   0   1   0   0   0   0   0   0   0   0   7   0   0   0   0   0   0   0   4   7   0   3   0   7   0   0   0   0   0  11 91 90 86 85 84 76 71 70 68 66 61 
  10   0   0   0   0   0   0   0   0   0   6   0   0   0   0   0   0   0   0   0   0   0   0   0  10   0   0   0   5   0   0  11 89 86 83 82 77 76 70 69 68 66 61 
   3   0   0  10   0   0   0   0   0   6   0   0   0   0   0   0   0   0   0   0   0   3   0   0   0   8   0   0   0   0   0   8 95 94 89 86 80 66 65 51 
   2   7   0   0   0   0   0   7   0   0   0   0   7   0   0   0   0   6   0   7   0   5   6   0   0   0   0   0   0   0   0  13 98 95 94 93 89 84 83 81 80 79 78 77 76 
   8   3   0   0   0   5   0   0   0   0   0   0   0   0   0   0   8   0   0   0   0   0   0   0   0   0   0   0   0   0   0   9 90 85 84 82 81 80 77 64 62 
   4   0   0   0   0   0   0   0   0   3   7   0   0   0   0   0   0   0   0   0   0   0   0  10   0   0   9   6   0   0   0  10 98 96 93 92 85 82 81 78 77 76 
   2   0   0   0   0   0   9   0   0   0   0   0   0   0   0   0   0   0   5   0   7   0   0   0   0   0   0   0   0   0   0   9 99 98 86 84 83 79 78 76 71 
   6   0   0   0   0   0   0   8   0   0   4   0   0   7   0   0   0   0   0   0   0   0   0   6   0   0   0   0   0   0   0   7 90 85 83 82 79 69 64 
   3   0   0   0   0   0   0   0   0   0   0   0   0   0   0   5   0   0   0   7   7  10   0   0   0   0   0   0   7   0   0   5 93 91 87 76 54 
   8   0   0   0   0   0   0   0   0   0   0   0   0   0   0   0   0   7   6   0   0   0   0   0   0   4   0   0   0   0   0   6 85 82 81 76 69 65 
  10   0   0   0   0   4   7   0   0   0   0   0   6   0   0   0   0   0   0   0   0   0   0   0   0   0   5   0   4   0   0   5 87 77 68 67 66 
   3   0   0   0   0   6   0   0   0   0   0   0   0   0   7   0   0   0   0   0   0   0   0   0   0   0   0   0   0   0   0   7 84 83 82 81 80 78 76 
  10   0   0   0   0   0   0   0   0   0   8   0   8   0   0   0   0   0   0   0   0   0   0   0   0   0   0   0   0   0   0   6 88 87 86 85 82 77 
   4   0   0   0   0   0   0   0   0   0   7   4   0   0   0   0   0   0   0   0   0   0   0   5   0   0   8   0   7   0   0   5 88 84 79 78 76 
   9   0   0   0   0   0   7   0   0   0   0   0   3   0   0   0   0   0   0   0   0   0   0   0   0   0   0   7   0   0   0   5 85 80 79 77 76 
   4   0   7   0   4   0   0   0   0   0   0  10   7   0   0   5   0   0   0   0   9   0   0   0   0   0   0   0  10   0   0   4 83 78 76 65 
   9   0   0   0   0   5   0   0   7   0   0   0   6   0   0   0   6   0   0   0   0   0   6   0   4   0   0   0   1   0   0   4 83 82 78 65 
   7   0   8   0   0   0   0   0   0   0   0   0   0   3   0   0   0   0   0   0   0   0   0   0   0   0   5   0   4   0   0   4 82 81 77 76 
   5   0   8   0   0   0   8   0   0   0   0   0   0   0   0   0   0   0   0   0   0   0   0   0   6   0   0   0   4   0   0   4 88 83 80 77 
   4   0   0   0   9   0   0   0   0   0   0   0   0   5   0   0   0   0   0   0   0   0   0   0   4   0   0   0   0   0   0   4 96 81 80 76 
  10   0   0   0   0   0   5   0   0   0   0   0   0   0   0   0   0   8   0   0   0   0   0   0   0   0   0   0   0   0   0   3 81 77 76 
   9   4   0   0   0   0   0   0   5   0   9   0   0   0   0   0   0   0   0   0   0   0   0   8   0   0   0   0   0   0   0   3 95 83 77 
   4   5   0   0   0   0   0   0   0   0   0   4   0   0   0   0   0   0   8   0   0   0   0   0   0   0   5   0   0   0   0   3 94 87 76 
   7   0   0   0   7   0   7   0   0   0   0   0   0   0   0   0   0   0   0   0   0   4   0   0   0   0   0   4   5   0   6   2 81 65 
   5   9   0   0  10   0   0   0   0   0   0   0   0   0   0   0   0   0   0   0   0   0   0   0   0   0   0   0   0   0   0   2 79 78 
   8   0   0   6   0   0   0   7   0   0   0   0   0   0   0   0   0   0   0   0   0   0   0   0   0   6   0   9   6   0   0   2 80 78 
   5   0   0   0   0   0   0   6   0   0   9   0   0   0   0   0   0   0   9   0   0   0   0   0   0   8   0   0   0   0   0   2 78 76 
   9   0   0   0   0   7   0   0   0  10   0   0   0   0   0   6   0   0   0  10   0   0   0   0   0   0   0   9   0   0   0   1 79 
  10   0   0   5   0   8   0   0   0   0   0   0   5   0   0   0   5   0   0   0   0   0   0   0   0   0   0   0   0   0   0   1 81 
  10   0   0   0   0   0   0   0   0   0   0   0   0   0   0   0   0   0   0   0   0   0   5   0   0   0   0   0   0   0   0   1 76 
   5   0   0   0   0   0   1   0   0   0   0   0   0   0   0   0   0   0   0   0   0   0   0   0   0   0   0   0   0   0   0   1 80 
   5   0   0   0   0   7   0   0  10   0   0   0   0   0   0   0   9   0   0   0   0   0   0   0   0   0   0   0   0   0   0   1 80 
   2   0   0   0   0   0   0   0   0   0   0   0   0   0   0   0   0   0   0   0   0   6  10   0   0   0   6   0   0   0  10   1 78 
  10   5   0   0   0   0   0   0   0   0   0   0   0   0   0   0   0   0   0   0   0   0   0   0   0   0   0   0   3   0   8   1 77 
   9   9   0   0   0   6   0   0   0   0   0   7   0   0   0   0   0   0   0   0   0   0   0   0   7   0   0   0   0   0   0   1 77 
   7   9   0   0   0   0   0   0   3   0   0   0   0   0   0   0   0   0   0   0   0   0   5   0   0   0   0   0   0   0   0   1 77 
   4   0   0   8   0   8   0   7   0   0   0   0   0   0   0   0   0   0   0   0   0   0   0   0   0   0   0   0   0   0   0   1 77 
   4   0   0   0   0   0   0   0   0   0   0   7   0   0   6   0   0   0   0   0   0   6   0   0   0   0   0   0   0   0   0   1 82 
   5   0   0   0   0   0   0   0   0   0   0   0   0   0   8   0   0   3   6   0   0  10   0   0   0   0   0   0   9   8   0   1 102
   1   0   0   0   0   0   0   0   0   0   0   0   9   0   0   0   0   0   0   0   0   0   0   0   2   0   0   0   0   0   0   1 102
   8   6   0   0   0   0   0   0   8   0   0   0   0   0   0   0   0   0   0   7   0   0   6   6   0   0   0   0   0   0   0   1 102
   6   7   0   0   0   0   0   0   0   0   0   0   0   0   8   0   0   0   0   9   0   0  10   0   0   0   0   6   0   0   0   1 102
   8   0   0   0   0   0   5   0   8   0   0   0   0   0   0   6   0   0   0   0   0   0   0   0   0   0   0   0   0   0   0   1 102
  10   0   0   0   0   0   0   0   0   0   0   0   0   0   6   0   0   0   0   0   0   0   0   0   0   0   0   0   0   6   0   1 102
   6   0   0   0   0   0   5   6   5   0   0   0   0   0   4   0   0   0   0   0   0   0   0   7   0   0   0   0   0   0   0   1 102
   4   0   0   0   0   0   5   4   0   0   0   3   0   0   0   0   0   0   0   0   0   0   4   0   0   0   0   0   3  10   0   1 102
   4   0   0   0   0   0   0   0   0   0   0   7   3   0   0   0   0   0   0   0   6   0   9   0   0   0   0   0   0   0   0   1 102
   3   0   0   0   0   6   3   0   0   0   0   0   0   0   0   0   0   0   0   6   0   0   0   0   0   0   0   9   0   6   0   1 102
  10   0   0   0   0   0   8   0   5   0   0   0   5   0   0   6   0   0   0   0   0   0   0   0   0   0   7   0   0   0   0   1 102
   5   0   0   0   0   0   0   8   0   0   0   0   0   0   0   0   9   0   0   0   0   0   0   0   6   0   0   0   4   0   6   1 102
   9   0   0   0   0   0   0  10   0   0   0   0   0   0   0   0   0   0   0   4   0   0   4   0   0   0   0   0   0   0   0   1 102
   9   0   0   0   0   0   0   0   0  10   0   0   0   0   0   0   0   0   0   0   0   7   0   0   0   0   0   5   0   0   0   1 102
   8   0   0   0   0   0   0   0   0   0   0   0   0   0   0   0   0   0   0   0   0   0   0   0   0   0   0   0   0   0   0   1 102
   3   0   0   0   0   0   9   0   0   0   0   0   0   0   0   0   0   0   0   0   0   0   0   0   0   0   0   0   0   0   0   1 102
   8   0   0   0   0   0   0   0   0   0   0   0   0   0   0   0   0   5   0   0   0   0   0   0   0   0   0   0   0   0   4   1 102
   2   0   0   0   0   0   0   0   4   0   0   6   0   0   0   0   0   0   9   0   0   0   0   0   0   0   0   0   0   0   0   1 102
   7   0   0   0   0   0   4   0   0   0   0   0   0   0   0   4   0   0   0   0   0   0   0   0   0   0   0   0   0   4   0   1 102
   1   0   0   0   0   0   0   0   0   0   5   0   0   0   0  10   0   0   0   0   4   4   0   0   0   0   0   5   8   5   0   1 102
   1   0   0   0   0   0   0   0   0   0   0   0   4   0   0   3   0   0   0   0   0   0   0   0   8   0   0   0   0   0   0   1 102
   7   0   0   0   0   8   7   0   0   0   0   0  10   0   4   0   0   0   0   0   0   0   0   0   0   0   0   0   9   0   0   1 102
   9   0   0   0   5   0   0   0   0   0   0   0   0   0   0   0   0   0   0   0   0   0   6   0   0   0   0   0   0   0   0   1 102
   9   0   0   0   0   0   0   7   0   0   0   0   0   0   0   0   5  10   4   0   5   0   0   0   0   5   0   0   0   0   0   1 102
   7   0   5   0   0   0   8   0   0   0   0   0   6   0   0   0   0   0   0   0   0   0   6   0   0   0   0   8   0   0   0   1 102
   3   0   0   0   0   6   0   0   0   0   5   0   0   5   0   0   4   0   0   5   0   0   0   0   0   0   0   0   9   0   0   1 102
   0   0   0   0   0   0   0   0   0   0   0   0   0   0   0   0   0   0   0   0   0   0   0   0   0   0   0   0   0   0   0   0 
